SECTION Graph
Nodes 391
Edges 666
E 1 2 5
E 2 3 5
E 3 4 5
E 4 5 5
E 5 6 5
E 7 8 5
E 8 9 5
E 9 10 5
E 10 11 5
E 11 12 5
E 12 13 5
E 13 14 5
E 15 16 5
E 16 17 5
E 17 18 5
E 18 19 5
E 19 20 5
E 20 21 5
E 21 22 5
E 22 23 5
E 23 24 5
E 24 25 5
E 25 26 5
E 26 27 5
E 27 28 5
E 1 29 13
E 2 30 13
E 3 31 13
E 4 32 13
E 5 33 13
E 6 34 13
E 7 35 13
E 8 36 13
E 9 37 13
E 10 38 13
E 11 39 13
E 12 40 13
E 13 41 13
E 14 42 13
E 15 44 13
E 17 46 13
E 18 47 13
E 19 48 13
E 20 49 13
E 21 50 13
E 22 51 13
E 23 52 13
E 24 53 13
E 25 54 13
E 26 55 13
E 28 57 13
E 29 30 5
E 30 31 5
E 31 32 5
E 32 33 5
E 33 34 5
E 35 36 5
E 36 37 5
E 37 38 5
E 38 39 5
E 39 40 5
E 40 41 5
E 41 42 5
E 42 43 5
E 43 44 5
E 44 45 5
E 45 46 5
E 46 47 5
E 47 48 5
E 48 49 5
E 49 50 5
E 50 51 5
E 51 52 5
E 52 53 5
E 53 54 5
E 54 55 5
E 55 56 5
E 56 57 5
E 29 58 13
E 30 59 13
E 31 60 13
E 32 61 13
E 34 62 13
E 35 64 13
E 37 65 13
E 38 66 13
E 39 67 13
E 40 68 13
E 41 69 13
E 42 70 13
E 43 71 13
E 44 72 13
E 45 73 13
E 46 74 13
E 47 75 13
E 48 76 13
E 49 77 13
E 50 78 13
E 51 79 13
E 54 82 13
E 55 83 13
E 58 59 5
E 59 60 5
E 60 61 5
E 62 63 5
E 63 64 5
E 65 66 5
E 66 67 5
E 67 68 5
E 68 69 5
E 69 70 5
E 70 71 5
E 71 72 5
E 72 73 5
E 73 74 5
E 74 75 5
E 75 76 5
E 76 77 5
E 77 78 5
E 78 79 5
E 79 80 5
E 80 81 5
E 81 82 5
E 82 83 5
E 83 84 5
E 84 85 5
E 59 87 13
E 60 88 13
E 61 89 13
E 62 90 13
E 63 91 13
E 64 92 13
E 65 93 13
E 66 94 13
E 67 95 13
E 68 96 13
E 69 97 13
E 70 98 13
E 71 99 13
E 72 100 13
E 74 102 13
E 75 103 13
E 76 104 13
E 77 105 13
E 78 106 13
E 79 107 13
E 81 108 13
E 83 109 13
E 85 111 13
E 86 87 5
E 87 88 5
E 88 89 5
E 90 91 5
E 91 92 5
E 93 94 5
E 94 95 5
E 95 96 5
E 96 97 5
E 97 98 5
E 98 99 5
E 99 100 5
E 100 101 5
E 101 102 5
E 102 103 5
E 103 104 5
E 104 105 5
E 105 106 5
E 106 107 5
E 109 110 5
E 110 111 5
E 86 112 13
E 89 115 13
E 90 117 13
E 91 118 13
E 92 119 13
E 93 121 13
E 94 122 13
E 95 123 13
E 96 124 13
E 97 125 13
E 98 126 13
E 99 127 13
E 100 128 13
E 101 129 13
E 102 130 13
E 103 131 13
E 105 133 13
E 106 134 13
E 107 135 13
E 108 137 13
E 109 138 13
E 111 139 13
E 112 113 5
E 113 114 5
E 114 115 5
E 115 116 5
E 116 117 5
E 117 118 5
E 118 119 5
E 119 120 5
E 120 121 5
E 121 122 5
E 122 123 5
E 123 124 5
E 124 125 5
E 125 126 5
E 126 127 5
E 127 128 5
E 128 129 5
E 129 130 5
E 130 131 5
E 131 132 5
E 132 133 5
E 133 134 5
E 134 135 5
E 135 136 5
E 136 137 5
E 112 140 13
E 113 141 13
E 114 142 13
E 115 143 13
E 116 144 13
E 117 145 13
E 118 146 13
E 119 147 13
E 120 148 13
E 121 149 13
E 122 150 13
E 123 151 13
E 124 152 13
E 125 153 13
E 126 154 13
E 127 155 13
E 128 156 13
E 130 158 13
E 131 159 13
E 132 160 13
E 133 161 13
E 134 162 13
E 135 163 13
E 136 164 13
E 137 165 13
E 138 167 13
E 139 168 13
E 140 141 5
E 141 142 5
E 142 143 5
E 143 144 5
E 144 145 5
E 145 146 5
E 146 147 5
E 147 148 5
E 148 149 5
E 149 150 5
E 150 151 5
E 151 152 5
E 152 153 5
E 153 154 5
E 154 155 5
E 155 156 5
E 156 157 5
E 157 158 5
E 158 159 5
E 159 160 5
E 160 161 5
E 161 162 5
E 162 163 5
E 163 164 5
E 164 165 5
E 165 166 5
E 166 167 5
E 140 169 13
E 141 170 13
E 143 171 13
E 144 172 13
E 145 173 13
E 146 174 13
E 147 175 13
E 148 176 13
E 149 177 13
E 150 178 13
E 151 179 13
E 152 180 13
E 153 181 13
E 154 182 13
E 156 184 13
E 157 185 13
E 158 186 13
E 159 187 13
E 161 189 13
E 162 190 13
E 163 191 13
E 164 192 13
E 165 193 13
E 166 194 13
E 167 195 13
E 168 197 13
E 169 170 5
E 171 172 5
E 172 173 5
E 173 174 5
E 174 175 5
E 175 176 5
E 176 177 5
E 177 178 5
E 178 179 5
E 179 180 5
E 180 181 5
E 181 182 5
E 182 183 5
E 183 184 5
E 184 185 5
E 185 186 5
E 186 187 5
E 187 188 5
E 188 189 5
E 189 190 5
E 190 191 5
E 191 192 5
E 192 193 5
E 193 194 5
E 194 195 5
E 195 196 5
E 196 197 5
E 169 198 13
E 170 199 13
E 171 200 13
E 174 203 13
E 175 204 13
E 176 205 13
E 177 206 13
E 178 207 13
E 179 208 13
E 180 209 13
E 181 210 13
E 182 211 13
E 183 212 13
E 184 213 13
E 185 214 13
E 186 215 13
E 187 216 13
E 188 217 13
E 189 218 13
E 191 220 13
E 192 221 13
E 193 222 13
E 195 224 13
E 196 225 13
E 197 226 13
E 198 199 5
E 200 201 5
E 201 202 5
E 202 203 5
E 203 204 5
E 204 205 5
E 205 206 5
E 206 207 5
E 207 208 5
E 208 209 5
E 209 210 5
E 210 211 5
E 211 212 5
E 212 213 5
E 213 214 5
E 214 215 5
E 215 216 5
E 216 217 5
E 217 218 5
E 218 219 5
E 219 220 5
E 220 221 5
E 221 222 5
E 222 223 5
E 223 224 5
E 224 225 5
E 225 226 5
E 198 227 13
E 199 228 13
E 200 230 13
E 201 231 13
E 202 232 13
E 203 233 13
E 204 234 13
E 205 235 13
E 206 236 13
E 207 237 13
E 208 238 13
E 210 239 13
E 211 240 13
E 213 242 13
E 215 244 13
E 216 245 13
E 218 246 13
E 219 247 13
E 220 248 13
E 222 249 13
E 223 250 13
E 224 251 13
E 226 253 13
E 227 228 5
E 228 229 5
E 229 230 5
E 230 231 5
E 231 232 5
E 232 233 5
E 233 234 5
E 234 235 5
E 235 236 5
E 236 237 5
E 237 238 5
E 239 240 5
E 240 241 5
E 241 242 5
E 242 243 5
E 243 244 5
E 244 245 5
E 246 247 5
E 247 248 5
E 249 250 5
E 250 251 5
E 251 252 5
E 252 253 5
E 227 254 13
E 228 255 13
E 229 256 13
E 230 257 13
E 231 258 13
E 232 259 13
E 233 260 13
E 234 261 13
E 236 262 13
E 237 263 13
E 238 264 13
E 239 265 13
E 240 266 13
E 241 267 13
E 242 268 13
E 243 269 13
E 244 270 13
E 245 271 13
E 246 272 13
E 247 273 13
E 248 274 13
E 249 275 13
E 250 276 13
E 251 277 13
E 252 278 13
E 253 279 13
E 254 255 5
E 255 256 5
E 256 257 5
E 257 258 5
E 258 259 5
E 259 260 5
E 260 261 5
E 262 263 5
E 263 264 5
E 265 266 5
E 266 267 5
E 267 268 5
E 268 269 5
E 269 270 5
E 270 271 5
E 272 273 5
E 273 274 5
E 275 276 5
E 276 277 5
E 277 278 5
E 278 279 5
E 254 280 13
E 255 281 13
E 256 282 13
E 258 283 13
E 259 284 13
E 260 285 13
E 261 286 13
E 262 287 13
E 263 288 13
E 264 289 13
E 265 291 13
E 266 292 13
E 267 293 13
E 268 294 13
E 269 295 13
E 270 296 13
E 271 297 13
E 272 299 13
E 273 300 13
E 274 301 13
E 275 303 13
E 276 304 13
E 277 305 13
E 278 306 13
E 279 307 13
E 280 281 5
E 281 282 5
E 283 284 5
E 284 285 5
E 285 286 5
E 287 288 5
E 288 289 5
E 289 290 5
E 290 291 5
E 291 292 5
E 292 293 5
E 293 294 5
E 294 295 5
E 295 296 5
E 296 297 5
E 297 298 5
E 298 299 5
E 299 300 5
E 300 301 5
E 301 302 5
E 302 303 5
E 303 304 5
E 304 305 5
E 305 306 5
E 306 307 5
E 282 310 13
E 283 311 13
E 284 312 13
E 285 313 13
E 286 314 13
E 287 316 13
E 288 317 13
E 289 318 13
E 290 319 13
E 291 320 13
E 292 321 13
E 293 322 13
E 294 323 13
E 296 325 13
E 297 326 13
E 298 327 13
E 299 328 13
E 301 330 13
E 302 331 13
E 303 332 13
E 304 333 13
E 305 334 13
E 307 335 13
E 308 309 5
E 309 310 5
E 311 312 5
E 312 313 5
E 313 314 5
E 314 315 5
E 315 316 5
E 316 317 5
E 317 318 5
E 318 319 5
E 319 320 5
E 320 321 5
E 321 322 5
E 322 323 5
E 323 324 5
E 324 325 5
E 325 326 5
E 326 327 5
E 327 328 5
E 328 329 5
E 329 330 5
E 330 331 5
E 331 332 5
E 332 333 5
E 333 334 5
E 309 336 13
E 310 337 13
E 311 339 13
E 312 340 13
E 313 341 13
E 314 342 13
E 315 343 13
E 316 344 13
E 317 345 13
E 318 346 13
E 319 347 13
E 321 349 13
E 322 350 13
E 323 351 13
E 324 352 13
E 325 353 13
E 326 354 13
E 328 356 13
E 329 357 13
E 330 358 13
E 331 359 13
E 332 360 13
E 334 362 13
E 335 363 13
E 336 337 5
E 337 338 5
E 338 339 5
E 339 340 5
E 340 341 5
E 341 342 5
E 342 343 5
E 343 344 5
E 344 345 5
E 345 346 5
E 346 347 5
E 347 348 5
E 348 349 5
E 349 350 5
E 350 351 5
E 351 352 5
E 352 353 5
E 353 354 5
E 354 355 5
E 355 356 5
E 356 357 5
E 357 358 5
E 358 359 5
E 359 360 5
E 360 361 5
E 361 362 5
E 336 364 13
E 337 365 13
E 338 366 13
E 339 367 13
E 340 368 13
E 341 369 13
E 342 370 13
E 343 371 13
E 345 372 13
E 346 373 13
E 347 374 13
E 348 375 13
E 349 376 13
E 351 378 13
E 353 380 13
E 354 381 13
E 356 383 13
E 357 384 13
E 358 385 13
E 360 387 13
E 361 388 13
E 362 389 13
E 363 391 13
E 364 365 5
E 365 366 5
E 366 367 5
E 367 368 5
E 368 369 5
E 369 370 5
E 370 371 5
E 372 373 5
E 373 374 5
E 374 375 5
E 375 376 5
E 376 377 5
E 377 378 5
E 378 379 5
E 379 380 5
E 380 381 5
E 381 382 5
E 382 383 5
E 383 384 5
E 384 385 5
E 385 386 5
E 386 387 5
E 387 388 5
E 388 389 5
E 389 390 5
E 390 391 5
END

SECTION Terminals
Terminals 16
T 15
T 72
T 103
T 128
T 130
T 140
T 211
T 213
T 224
T 244
T 294
T 319
T 322
T 349
T 351
T 354
END

EOF
